Data path: /scratch/opt/lxu/CFLG/benchmarks/Kgroup_A
Instance: K100.7.red
Result path: /scratch/opt/lxu/CFLG/results/Kgroup_A
Solver: Gurobi
Time limit: 7200
Formulation: EFP
Cover: Large
julia --project=. src/main.jl /scratch/opt/lxu/CFLG/benchmarks/Kgroup_A K100.7.red /scratch/opt/lxu/CFLG/results/Kgroup_A Gurobi 7200 EFP Large
The latest version of Julia in the `release` channel is 1.11.6+0.x64.linux.gnu. You currently have `1.11.4+0.x64.linux.gnu` installed. Run:

  juliaup update

in your terminal shell to install Julia 1.11.6+0.x64.linux.gnu and update the `release` channel to that version.
/scratch/opt/lxu/CFLG/benchmarks/Kgroup_A Gurobi 7200.0 /scratch/opt/lxu/CFLG/results/Kgroup_A K100.7.red EFP Large
/scratch/opt/lxu/CFLG/benchmarks/Kgroup_A/K100.7.red

 read graph
data loaded


after absorb:25 25

max_piece:2
problem_graph/original graph: node: 37/25 edge: 105/93 dlt: 0.563171465577237 break_avg_len: 0.2494045061842049 break_max_len: 0.5533976267721434elapsed CPU time: 0.038044 seconds
Set parameter TokenServer to value "solice01.zib.de"
Set parameter Threads to value 1
Set parameter OutputFlag to value 1
Set parameter MIPGap to value 0.0001
Set parameter TimeLimit to value 7199.961956

 more cuts: false 0.563171465577237 false
is_attach:falseformulation:EFP0 105 37

 model loaded

Gurobi Optimizer version 12.0.1 build v12.0.1rc0 (linux64 - "Debian GNU/Linux 12 (bookworm)")

CPU model: Intel(R) Xeon(R) Gold 5222 CPU @ 3.80GHz, instruction set [SSE2|AVX|AVX2|AVX512]
Thread count: 8 physical cores, 16 logical processors, using up to 1 threads

Non-default parameters:
TimeLimit  7199.961956
Threads  1

Optimize a model with 7625 rows, 3758 columns and 22375 nonzeros
Model fingerprint: 0x84b0f798
Variable types: 247 continuous, 3511 integer (3511 binary)
Coefficient statistics:
  Matrix range     [1e-06, 1e+00]
  Objective range  [1e+00, 1e+00]
  Bounds range     [2e-02, 6e-01]
  RHS range        [2e-02, 1e+01]
Found heuristic solution: objective 25.0000000
Presolve removed 1699 rows and 261 columns
Presolve time: 0.05s
Presolved: 5926 rows, 3497 columns, 19735 nonzeros
Variable types: 142 continuous, 3355 integer (3355 binary)

Root relaxation: objective 2.333333e+00, 2129 iterations, 0.05 seconds (0.08 work units)

    Nodes    |    Current Node    |     Objective Bounds      |     Work
 Expl Unexpl |  Obj  Depth IntInf | Incumbent    BestBd   Gap | It/Node Time

     0     0    2.33333    0  107   25.00000    2.33333  90.7%     -    0s
H    0     0                      24.0000000    2.33333  90.3%     -    0s
H    0     0                       7.0000000    2.33333  66.7%     -    0s
H    0     0                       6.0000000    2.33333  61.1%     -    0s
     0     0    2.33333    0  124    6.00000    2.33333  61.1%     -    0s
H    0     0                       5.0000000    2.41176  51.8%     -    0s
H    0     0                       4.0000000    2.41176  39.7%     -    0s
     0     0    3.00000    0  175    4.00000    3.00000  25.0%     -    0s
     0     0    3.00000    0   43    4.00000    3.00000  25.0%     -    0s
     0     0    3.00000    0   43    4.00000    3.00000  25.0%     -    0s
     0     0    3.00000    0  151    4.00000    3.00000  25.0%     -    0s
     0     0    3.00000    0  131    4.00000    3.00000  25.0%     -    0s
     0     0    3.00000    0   41    4.00000    3.00000  25.0%     -    1s
     0     0    3.00000    0  103    4.00000    3.00000  25.0%     -    1s
     0     0    3.00000    0   48    4.00000    3.00000  25.0%     -    1s
     0     0    3.00000    0   48    4.00000    3.00000  25.0%     -    1s
     0     2    3.00000    0   48    4.00000    3.00000  25.0%     -    1s
     9     8    3.00000    1   26    4.00000    3.00000  25.0%   250    5s
    31    23    3.00000    1  144    4.00000    3.00000  25.0%   977   10s

Cutting planes:
  Cover: 3
  Implied bound: 1
  Clique: 18
  MIR: 2
  Mixing: 1
  Flow cover: 3
  GUB cover: 1
  RLT: 3
  Relax-and-lift: 4

Explored 59 nodes (108910 simplex iterations) in 12.34 seconds (15.24 work units)
Thread count was 1 (of 16 available processors)

Solution count 9: 4 4 4 ... 25

Optimal solution found (tolerance 1.00e-04)
Best objective 4.000000000000e+00, best bound 4.000000000000e+00, gap 0.0000%

User-callback calls 3434, time in user-callback 0.01 sec

 sepatime0 0 0
4.0
Stat(MathOptInterface.OPTIMAL, 4.0, 4.0, 0.0, 0.0, 0.038044, 12.342339038848877, 59, Main.CFLG.EFP, "", #undef)
